c File: data_files/evolved_graphs/g3728.col
c
c Auto generated graph
c
p edge 100 1678
e 1 4
e 1 7
e 1 30
e 1 42
e 1 47
e 1 50
e 1 51
e 1 53
e 1 55
e 1 56
e 1 57
e 1 59
e 1 60
e 1 62
e 1 64
e 1 65
e 1 68
e 1 69
e 1 70
e 1 71
e 1 72
e 1 74
e 1 84
e 1 92
e 1 94
e 1 95
e 1 100
e 2 4
e 2 5
e 2 7
e 2 8
e 2 17
e 2 21
e 2 23
e 2 28
e 2 35
e 2 38
e 2 41
e 2 50
e 2 51
e 2 52
e 2 56
e 2 58
e 2 59
e 2 60
e 2 64
e 2 65
e 2 66
e 2 67
e 2 69
e 2 70
e 2 71
e 2 73
e 2 74
e 2 79
e 2 94
e 3 4
e 3 6
e 3 18
e 3 28
e 3 44
e 3 47
e 3 52
e 3 54
e 3 55
e 3 56
e 3 57
e 3 62
e 3 63
e 3 65
e 3 66
e 3 67
e 3 68
e 3 71
e 3 74
e 4 5
e 4 6
e 4 9
e 4 13
e 4 15
e 4 16
e 4 23
e 4 26
e 4 30
e 4 36
e 4 42
e 4 51
e 4 52
e 4 53
e 4 54
e 4 55
e 4 56
e 4 57
e 4 58
e 4 60
e 4 61
e 4 62
e 4 63
e 4 64
e 4 66
e 4 68
e 4 70
e 4 71
e 4 73
e 4 74
e 4 79
e 4 81
e 5 10
e 5 19
e 5 41
e 5 47
e 5 50
e 5 51
e 5 54
e 5 55
e 5 59
e 5 61
e 5 62
e 5 66
e 5 67
e 5 68
e 5 69
e 5 70
e 5 72
e 5 78
e 6 16
e 6 18
e 6 26
e 6 35
e 6 36
e 6 44
e 6 47
e 6 48
e 6 50
e 6 51
e 6 52
e 6 53
e 6 54
e 6 55
e 6 56
e 6 57
e 6 58
e 6 59
e 6 61
e 6 63
e 6 64
e 6 65
e 6 66
e 6 67
e 6 70
e 6 71
e 6 73
e 6 74
e 6 86
e 6 88
e 7 9
e 7 11
e 7 19
e 7 33
e 7 43
e 7 44
e 7 51
e 7 53
e 7 54
e 7 57
e 7 59
e 7 60
e 7 70
e 7 71
e 7 72
e 7 74
e 7 91
e 8 10
e 8 11
e 8 13
e 8 15
e 8 16
e 8 17
e 8 21
e 8 24
e 8 29
e 8 30
e 8 32
e 8 34
e 8 35
e 8 39
e 8 40
e 8 42
e 8 43
e 8 46
e 8 48
e 8 49
e 8 50
e 8 55
e 8 57
e 8 60
e 8 62
e 8 63
e 8 64
e 8 66
e 8 67
e 8 68
e 8 70
e 8 74
e 9 11
e 9 13
e 9 15
e 9 17
e 9 23
e 9 24
e 9 25
e 9 26
e 9 28
e 9 33
e 9 35
e 9 37
e 9 38
e 9 41
e 9 42
e 9 45
e 9 49
e 9 50
e 9 51
e 9 52
e 9 53
e 9 55
e 9 58
e 9 59
e 9 61
e 9 62
e 9 63
e 9 64
e 9 65
e 9 67
e 9 68
e 9 69
e 9 70
e 9 72
e 9 73
e 9 74
e 9 91
e 10 11
e 10 13
e 10 15
e 10 17
e 10 19
e 10 20
e 10 25
e 10 27
e 10 29
e 10 31
e 10 32
e 10 33
e 10 37
e 10 41
e 10 42
e 10 43
e 10 47
e 10 49
e 10 50
e 10 51
e 10 57
e 10 60
e 10 61
e 10 62
e 10 63
e 10 64
e 10 65
e 10 69
e 10 72
e 10 73
e 10 74
e 10 81
e 11 16
e 11 20
e 11 23
e 11 26
e 11 27
e 11 29
e 11 32
e 11 34
e 11 35
e 11 36
e 11 41
e 11 47
e 11 48
e 11 49
e 11 52
e 11 53
e 11 60
e 11 62
e 11 64
e 11 66
e 11 67
e 11 71
e 11 72
e 11 73
e 11 75
e 11 91
e 12 13
e 12 19
e 12 20
e 12 22
e 12 23
e 12 24
e 12 27
e 12 29
e 12 30
e 12 34
e 12 38
e 12 41
e 12 42
e 12 45
e 12 46
e 12 47
e 12 50
e 12 51
e 12 52
e 12 53
e 12 54
e 12 56
e 12 57
e 12 59
e 12 60
e 12 62
e 12 64
e 12 65
e 12 66
e 12 71
e 12 72
e 12 74
e 12 75
e 12 100
e 13 15
e 13 16
e 13 19
e 13 22
e 13 25
e 13 27
e 13 28
e 13 32
e 13 37
e 13 38
e 13 40
e 13 42
e 13 44
e 13 49
e 13 50
e 13 52
e 13 54
e 13 55
e 13 56
e 13 57
e 13 60
e 13 62
e 13 65
e 13 66
e 13 67
e 13 68
e 13 71
e 13 72
e 13 74
e 13 95
e 13 98
e 14 17
e 14 19
e 14 22
e 14 25
e 14 28
e 14 29
e 14 31
e 14 34
e 14 37
e 14 39
e 14 41
e 14 42
e 14 44
e 14 45
e 14 47
e 14 57
e 14 58
e 14 59
e 14 60
e 14 65
e 14 66
e 14 71
e 14 72
e 14 73
e 14 74
e 14 88
e 14 92
e 15 16
e 15 22
e 15 23
e 15 26
e 15 27
e 15 29
e 15 31
e 15 39
e 15 43
e 15 45
e 15 48
e 15 49
e 15 50
e 15 51
e 15 53
e 15 55
e 15 60
e 15 61
e 15 62
e 15 63
e 15 65
e 15 66
e 15 67
e 15 68
e 15 69
e 15 71
e 15 72
e 15 73
e 15 74
e 15 84
e 16 19
e 16 24
e 16 25
e 16 27
e 16 32
e 16 37
e 16 42
e 16 43
e 16 44
e 16 50
e 16 51
e 16 53
e 16 54
e 16 55
e 16 56
e 16 58
e 16 62
e 16 63
e 16 65
e 16 69
e 16 71
e 16 72
e 16 73
e 17 18
e 17 21
e 17 23
e 17 25
e 17 26
e 17 28
e 17 29
e 17 31
e 17 33
e 17 35
e 17 37
e 17 38
e 17 40
e 17 42
e 17 46
e 17 48
e 17 50
e 17 51
e 17 52
e 17 54
e 17 56
e 17 57
e 17 59
e 17 61
e 17 62
e 17 65
e 17 69
e 17 71
e 17 73
e 17 77
e 17 85
e 17 87
e 18 19
e 18 23
e 18 25
e 18 34
e 18 35
e 18 37
e 18 38
e 18 48
e 18 52
e 18 53
e 18 54
e 18 57
e 18 58
e 18 61
e 18 62
e 18 64
e 18 67
e 18 68
e 18 69
e 19 25
e 19 28
e 19 32
e 19 33
e 19 43
e 19 48
e 19 49
e 19 50
e 19 51
e 19 52
e 19 54
e 19 55
e 19 58
e 19 59
e 19 60
e 19 61
e 19 64
e 19 65
e 19 66
e 19 68
e 19 69
e 19 70
e 19 72
e 19 73
e 19 74
e 19 89
e 20 21
e 20 22
e 20 34
e 20 36
e 20 38
e 20 41
e 20 42
e 20 43
e 20 44
e 20 48
e 20 50
e 20 53
e 20 58
e 20 59
e 20 60
e 20 62
e 20 63
e 20 64
e 20 66
e 20 68
e 20 70
e 20 72
e 20 74
e 21 22
e 21 23
e 21 24
e 21 27
e 21 29
e 21 34
e 21 36
e 21 37
e 21 39
e 21 40
e 21 46
e 21 47
e 21 50
e 21 53
e 21 54
e 21 55
e 21 56
e 21 58
e 21 60
e 21 61
e 21 62
e 21 65
e 21 67
e 21 69
e 21 70
e 21 72
e 21 74
e 21 90
e 21 93
e 22 23
e 22 24
e 22 25
e 22 27
e 22 28
e 22 38
e 22 41
e 22 42
e 22 46
e 22 49
e 22 50
e 22 54
e 22 55
e 22 56
e 22 58
e 22 61
e 22 64
e 22 65
e 22 66
e 22 67
e 22 69
e 22 71
e 22 73
e 23 24
e 23 29
e 23 31
e 23 36
e 23 40
e 23 44
e 23 48
e 23 49
e 23 50
e 23 52
e 23 53
e 23 54
e 23 55
e 23 58
e 23 60
e 23 62
e 23 66
e 23 68
e 23 69
e 23 70
e 23 71
e 23 74
e 23 86
e 23 91
e 23 94
e 24 28
e 24 29
e 24 31
e 24 33
e 24 34
e 24 39
e 24 44
e 24 47
e 24 49
e 24 50
e 24 52
e 24 53
e 24 55
e 24 56
e 24 57
e 24 58
e 24 60
e 24 61
e 24 62
e 24 64
e 24 65
e 24 70
e 24 71
e 24 96
e 25 29
e 25 34
e 25 42
e 25 46
e 25 47
e 25 48
e 25 49
e 25 52
e 25 53
e 25 54
e 25 57
e 25 58
e 25 60
e 25 65
e 25 68
e 25 69
e 25 70
e 25 72
e 25 74
e 26 30
e 26 33
e 26 34
e 26 35
e 26 36
e 26 37
e 26 39
e 26 40
e 26 41
e 26 44
e 26 45
e 26 46
e 26 49
e 26 50
e 26 52
e 26 54
e 26 55
e 26 56
e 26 57
e 26 58
e 26 59
e 26 60
e 26 61
e 26 62
e 26 68
e 26 69
e 26 71
e 26 74
e 26 97
e 27 28
e 27 30
e 27 31
e 27 32
e 27 33
e 27 34
e 27 35
e 27 38
e 27 40
e 27 42
e 27 43
e 27 45
e 27 49
e 27 55
e 27 56
e 27 57
e 27 58
e 27 62
e 27 63
e 27 64
e 27 65
e 27 66
e 27 69
e 27 73
e 27 95
e 28 29
e 28 30
e 28 38
e 28 39
e 28 41
e 28 48
e 28 50
e 28 52
e 28 53
e 28 54
e 28 55
e 28 56
e 28 57
e 28 58
e 28 61
e 28 63
e 28 64
e 28 65
e 28 66
e 28 67
e 28 71
e 28 72
e 28 74
e 28 85
e 28 99
e 29 30
e 29 35
e 29 37
e 29 39
e 29 40
e 29 41
e 29 48
e 29 49
e 29 50
e 29 51
e 29 52
e 29 53
e 29 54
e 29 55
e 29 56
e 29 58
e 29 59
e 29 61
e 29 62
e 29 63
e 29 66
e 29 70
e 29 71
e 29 73
e 30 32
e 30 34
e 30 36
e 30 42
e 30 45
e 30 46
e 30 49
e 30 50
e 30 53
e 30 54
e 30 57
e 30 59
e 30 60
e 30 62
e 30 63
e 30 64
e 30 65
e 30 66
e 30 68
e 30 70
e 30 73
e 30 74
e 30 87
e 30 91
e 30 97
e 31 32
e 31 34
e 31 38
e 31 40
e 31 42
e 31 45
e 31 47
e 31 52
e 31 54
e 31 55
e 31 56
e 31 57
e 31 59
e 31 61
e 31 63
e 31 67
e 31 68
e 31 69
e 31 70
e 31 72
e 31 73
e 31 81
e 32 34
e 32 37
e 32 38
e 32 39
e 32 40
e 32 41
e 32 43
e 32 48
e 32 50
e 32 51
e 32 52
e 32 54
e 32 55
e 32 57
e 32 59
e 32 61
e 32 64
e 32 65
e 32 66
e 32 67
e 32 69
e 32 71
e 32 74
e 32 88
e 32 94
e 32 99
e 33 41
e 33 42
e 33 46
e 33 49
e 33 50
e 33 51
e 33 52
e 33 55
e 33 56
e 33 61
e 33 63
e 33 65
e 33 69
e 33 71
e 33 72
e 33 74
e 33 96
e 34 35
e 34 37
e 34 42
e 34 43
e 34 48
e 34 50
e 34 51
e 34 53
e 34 54
e 34 57
e 34 59
e 34 61
e 34 62
e 34 64
e 34 65
e 34 70
e 34 71
e 34 72
e 34 73
e 34 80
e 35 38
e 35 41
e 35 44
e 35 45
e 35 46
e 35 53
e 35 56
e 35 59
e 35 60
e 35 61
e 35 62
e 35 69
e 35 71
e 35 72
e 35 91
e 36 39
e 36 43
e 36 45
e 36 46
e 36 48
e 36 49
e 36 50
e 36 51
e 36 52
e 36 54
e 36 55
e 36 56
e 36 57
e 36 61
e 36 66
e 36 69
e 36 70
e 36 72
e 36 73
e 36 74
e 36 81
e 37 38
e 37 40
e 37 42
e 37 43
e 37 51
e 37 52
e 37 54
e 37 56
e 37 57
e 37 58
e 37 59
e 37 60
e 37 63
e 37 65
e 37 66
e 37 67
e 37 68
e 37 70
e 37 71
e 37 72
e 37 73
e 37 74
e 37 78
e 37 83
e 38 45
e 38 46
e 38 47
e 38 49
e 38 51
e 38 54
e 38 55
e 38 56
e 38 58
e 38 60
e 38 62
e 38 63
e 38 64
e 38 65
e 38 66
e 38 67
e 38 69
e 38 71
e 38 72
e 38 73
e 38 74
e 39 44
e 39 45
e 39 50
e 39 51
e 39 54
e 39 56
e 39 58
e 39 59
e 39 61
e 39 62
e 39 65
e 39 66
e 39 68
e 39 69
e 39 71
e 39 72
e 39 74
e 40 41
e 40 42
e 40 46
e 40 48
e 40 49
e 40 50
e 40 51
e 40 54
e 40 55
e 40 57
e 40 59
e 40 60
e 40 62
e 40 63
e 40 64
e 40 65
e 40 66
e 40 67
e 40 68
e 40 70
e 40 73
e 40 74
e 40 79
e 40 81
e 40 88
e 41 42
e 41 43
e 41 48
e 41 50
e 41 51
e 41 52
e 41 55
e 41 56
e 41 57
e 41 59
e 41 60
e 41 61
e 41 62
e 41 63
e 41 65
e 41 67
e 41 69
e 41 72
e 41 85
e 42 43
e 42 44
e 42 45
e 42 48
e 42 51
e 42 52
e 42 54
e 42 55
e 42 56
e 42 58
e 42 60
e 42 61
e 42 62
e 42 63
e 42 64
e 42 65
e 42 68
e 42 69
e 42 72
e 42 73
e 42 74
e 42 86
e 43 46
e 43 50
e 43 52
e 43 54
e 43 56
e 43 58
e 43 63
e 43 65
e 43 66
e 43 68
e 43 70
e 43 72
e 43 73
e 43 88
e 44 47
e 44 48
e 44 50
e 44 52
e 44 55
e 44 56
e 44 62
e 44 63
e 44 64
e 44 66
e 44 67
e 44 68
e 44 72
e 44 73
e 44 90
e 44 99
e 45 47
e 45 48
e 45 50
e 45 52
e 45 53
e 45 55
e 45 57
e 45 58
e 45 60
e 45 61
e 45 62
e 45 65
e 45 66
e 45 69
e 45 71
e 45 72
e 45 73
e 45 74
e 45 89
e 45 98
e 46 49
e 46 50
e 46 51
e 46 52
e 46 53
e 46 54
e 46 55
e 46 56
e 46 57
e 46 58
e 46 59
e 46 60
e 46 61
e 46 64
e 46 67
e 46 68
e 46 69
e 46 71
e 46 72
e 46 73
e 47 49
e 47 50
e 47 51
e 47 53
e 47 57
e 47 58
e 47 59
e 47 60
e 47 64
e 47 65
e 47 66
e 47 69
e 47 72
e 47 73
e 47 74
e 48 50
e 48 51
e 48 53
e 48 55
e 48 56
e 48 58
e 48 59
e 48 62
e 48 63
e 48 64
e 48 65
e 48 67
e 48 68
e 48 69
e 48 70
e 48 74
e 48 100
e 49 54
e 49 55
e 49 56
e 49 57
e 49 59
e 49 60
e 49 61
e 49 63
e 49 64
e 49 65
e 49 67
e 49 68
e 49 70
e 49 71
e 49 72
e 49 73
e 49 94
e 50 55
e 50 56
e 50 57
e 50 58
e 50 59
e 50 60
e 50 61
e 50 63
e 50 69
e 50 73
e 50 74
e 50 77
e 50 80
e 50 81
e 50 82
e 50 83
e 50 85
e 50 86
e 50 88
e 50 89
e 50 91
e 50 93
e 50 94
e 50 95
e 50 97
e 50 99
e 50 100
e 51 57
e 51 59
e 51 61
e 51 68
e 51 69
e 51 70
e 51 71
e 51 72
e 51 73
e 51 74
e 51 75
e 51 78
e 51 80
e 51 88
e 51 91
e 51 92
e 51 93
e 51 95
e 51 97
e 51 99
e 52 54
e 52 56
e 52 60
e 52 62
e 52 64
e 52 65
e 52 68
e 52 69
e 52 71
e 52 74
e 52 75
e 52 76
e 52 77
e 52 79
e 52 81
e 52 83
e 52 87
e 52 89
e 52 94
e 52 95
e 52 96
e 52 97
e 52 100
e 53 55
e 53 56
e 53 58
e 53 61
e 53 68
e 53 69
e 53 71
e 53 72
e 53 74
e 53 75
e 53 77
e 53 81
e 53 82
e 53 86
e 53 87
e 53 92
e 53 93
e 53 94
e 53 96
e 53 98
e 53 99
e 54 57
e 54 63
e 54 66
e 54 67
e 54 68
e 54 73
e 54 74
e 54 77
e 54 79
e 54 85
e 54 88
e 54 91
e 54 94
e 54 95
e 54 96
e 54 97
e 54 98
e 54 100
e 55 56
e 55 59
e 55 60
e 55 63
e 55 67
e 55 70
e 55 71
e 55 74
e 55 75
e 55 76
e 55 77
e 55 80
e 55 88
e 55 89
e 55 90
e 55 91
e 55 96
e 56 57
e 56 60
e 56 62
e 56 63
e 56 65
e 56 67
e 56 68
e 56 69
e 56 73
e 56 74
e 56 75
e 56 77
e 56 78
e 56 79
e 56 82
e 56 83
e 56 86
e 56 87
e 56 88
e 56 89
e 56 90
e 56 92
e 56 94
e 56 96
e 56 97
e 56 98
e 57 59
e 57 64
e 57 65
e 57 67
e 57 69
e 57 71
e 57 74
e 57 75
e 57 77
e 57 79
e 57 84
e 57 85
e 57 88
e 57 89
e 57 94
e 57 97
e 57 98
e 58 63
e 58 64
e 58 65
e 58 66
e 58 67
e 58 68
e 58 72
e 58 74
e 58 75
e 58 76
e 58 78
e 58 83
e 58 85
e 58 88
e 58 89
e 58 90
e 58 91
e 58 93
e 58 94
e 58 99
e 58 100
e 59 61
e 59 62
e 59 63
e 59 66
e 59 69
e 59 71
e 59 75
e 59 79
e 59 82
e 59 86
e 59 88
e 59 91
e 59 94
e 59 95
e 59 96
e 60 63
e 60 64
e 60 65
e 60 69
e 60 72
e 60 74
e 60 80
e 60 85
e 60 91
e 60 92
e 60 93
e 60 97
e 61 64
e 61 67
e 61 68
e 61 70
e 61 73
e 61 75
e 61 76
e 61 77
e 61 79
e 61 83
e 61 86
e 61 90
e 61 91
e 62 64
e 62 65
e 62 66
e 62 67
e 62 68
e 62 71
e 62 74
e 62 76
e 62 79
e 62 84
e 62 92
e 62 95
e 62 98
e 63 64
e 63 66
e 63 71
e 63 74
e 63 80
e 63 81
e 63 82
e 63 84
e 63 87
e 63 91
e 63 92
e 63 95
e 63 96
e 63 97
e 63 99
e 64 67
e 64 70
e 64 72
e 64 73
e 64 74
e 64 81
e 64 82
e 64 83
e 64 85
e 64 88
e 64 89
e 64 90
e 64 92
e 64 97
e 65 67
e 65 70
e 65 72
e 65 84
e 65 87
e 65 88
e 65 89
e 65 92
e 65 94
e 65 95
e 65 97
e 65 100
e 66 67
e 66 68
e 66 73
e 66 74
e 66 75
e 66 76
e 66 77
e 66 79
e 66 82
e 66 83
e 66 90
e 66 91
e 66 93
e 66 94
e 66 95
e 66 96
e 67 68
e 67 70
e 67 75
e 67 76
e 67 77
e 67 84
e 67 85
e 67 90
e 67 92
e 67 93
e 67 96
e 67 98
e 67 99
e 67 100
e 68 69
e 68 74
e 68 80
e 68 82
e 68 83
e 68 85
e 68 86
e 68 89
e 68 93
e 68 95
e 68 97
e 69 71
e 69 74
e 69 75
e 69 76
e 69 77
e 69 78
e 69 79
e 69 80
e 69 86
e 69 88
e 69 92
e 69 94
e 69 96
e 69 98
e 70 76
e 70 85
e 70 86
e 70 87
e 70 88
e 70 89
e 70 90
e 70 93
e 70 94
e 70 96
e 70 99
e 71 74
e 71 79
e 71 81
e 71 86
e 71 90
e 71 94
e 71 97
e 71 98
e 71 99
e 72 73
e 72 74
e 72 76
e 72 79
e 72 84
e 72 87
e 72 90
e 72 91
e 72 96
e 72 98
e 72 99
e 73 74
e 73 75
e 73 79
e 73 82
e 73 85
e 73 86
e 73 89
e 73 90
e 73 94
e 73 95
e 73 96
e 73 97
e 74 75
e 74 77
e 74 84
e 74 85
e 74 87
e 74 88
e 74 90
e 74 91
e 74 97
e 74 98
e 74 100
e 75 76
e 75 83
e 75 84
e 75 87
e 75 89
e 75 90
e 75 92
e 75 100
e 76 79
e 76 84
e 76 86
e 76 89
e 76 92
e 76 93
e 76 96
e 77 79
e 77 81
e 77 83
e 77 85
e 77 87
e 77 90
e 77 93
e 77 94
e 77 97
e 78 81
e 78 91
e 78 93
e 78 94
e 79 83
e 79 85
e 79 89
e 79 90
e 79 91
e 79 92
e 79 93
e 79 95
e 79 96
e 79 98
e 79 99
e 80 84
e 80 86
e 80 87
e 80 88
e 80 93
e 80 94
e 80 95
e 80 96
e 80 97
e 80 98
e 80 99
e 81 87
e 81 93
e 81 98
e 81 99
e 82 84
e 82 89
e 82 91
e 82 92
e 82 94
e 82 96
e 82 97
e 82 98
e 83 90
e 83 91
e 83 92
e 83 93
e 83 96
e 84 86
e 84 88
e 84 93
e 84 94
e 84 98
e 84 99
e 85 86
e 85 87
e 85 88
e 85 89
e 85 97
e 85 100
e 86 88
e 86 89
e 86 90
e 86 96
e 86 98
e 86 100
e 87 89
e 87 90
e 87 91
e 87 92
e 87 93
e 87 95
e 87 97
e 87 98
e 87 99
e 87 100
e 88 90
e 88 91
e 88 92
e 88 97
e 89 90
e 89 91
e 89 96
e 90 91
e 90 92
e 90 96
e 90 98
e 90 99
e 90 100
e 91 92
e 91 93
e 91 98
e 91 100
e 92 94
e 92 95
e 92 98
e 92 99
e 93 95
e 93 99
e 94 97
e 94 100
e 95 96
e 95 97
e 96 98
e 96 100
e 97 100
